% A 5x5 Nonogram instance. The intended filled grid is:
% ..#..
% .###.
% #####
% #...#
% #####

n_rows = 5;
n_cols = 5;
max_row_blocks = 2;
max_col_blocks = 2;

% Row clues: [1], [3], [5], [1,1], [5]
row_count = [1, 1, 1, 2, 1];
row_len = array2d(ROW, ROW_BLOCK, [
    1, 0,
    3, 0,
    5, 0,
    1, 1,
    5, 0
]);

% Column clues: [3], [2,1], [3,1], [2,1], [3]
col_count = [1, 2, 2, 2, 1];
col_len = array2d(COL, COL_BLOCK, [
    3, 0,
    2, 1,
    3, 1,
    2, 1,
    3, 0
]);
